c FILE /home/rafael/Documents/HappySet/MIHS/inputs/happygen/output/graph_scale_free_k10_p0.2_v100_20241127_083909.txt
c SOURCE This is a scale-free graph formed for the happy graph colouring problem.
c DESCRIPTION It was generated using the problem generator of Rhyd Lewis
c
c GRAPH STATS
c Seed                             = -114802933
c Number of Nodes                  = 100
c Number of colours k              = 10
c Number of pre-assignments        = 20
c Number of links per new node     = 5
c Density                          = 0.0979798
c 
c The degrees of nodes 1 to 100, respectively, are as follows 
c [35, 34, 32, 31, 25, 24, 22, 22, 21, 20, 18, 17, 15, 15, 15, 14, 14, 14, 13, 13, 13, 12, 12, 12, 12, 10, 
c  10, 10, 10, 10, 9, 9, 9, 9, 9, 9, 9, 9, 9, 8, 8, 8, 8, 8, 8, 8, 7, 7, 7, 7, 7, 
c  7, 7, 7, 7, 7, 7, 6, 6, 6, 6, 6, 6, 6, 6, 6, 6, 6, 6, 6, 6, 6, 6, 5, 5, 5, 
c  5, 5, 5, 5, 5, 5, 5, 5, 5, 5, 5, 5, 5, 5, 5, 5, 5, 5, 5, 5, 5, 5, 5, 5] 
c  
p edge 100 485 10
e 1 2
e 1 3
e 1 4
e 1 5
e 1 6
e 1 7
e 1 9
e 1 13
e 1 14
e 1 17
e 1 21
e 1 22
e 1 23
e 1 27
e 1 30
e 1 31
e 1 38
e 1 39
e 1 41
e 1 48
e 1 49
e 1 50
e 1 53
e 1 57
e 1 63
e 1 64
e 1 65
e 1 66
e 1 67
e 1 72
e 1 73
e 1 83
e 1 91
e 1 92
e 1 94
e 2 3
e 2 5
e 2 6
e 2 7
e 2 9
e 2 10
e 2 12
e 2 13
e 2 14
e 2 16
e 2 19
e 2 24
e 2 25
e 2 26
e 2 27
e 2 28
e 2 29
e 2 32
e 2 37
e 2 39
e 2 40
e 2 46
e 2 50
e 2 57
e 2 58
e 2 61
e 2 68
e 2 70
e 2 76
e 2 78
e 2 79
e 2 80
e 2 88
e 3 4
e 3 5
e 3 6
e 3 7
e 3 8
e 3 9
e 3 13
e 3 17
e 3 18
e 3 19
e 3 21
e 3 22
e 3 28
e 3 32
e 3 33
e 3 40
e 3 45
e 3 47
e 3 48
e 3 52
e 3 54
e 3 55
e 3 59
e 3 63
e 3 65
e 3 69
e 3 70
e 3 77
e 3 81
e 3 100
e 4 5
e 4 6
e 4 7
e 4 10
e 4 11
e 4 12
e 4 15
e 4 18
e 4 20
e 4 33
e 4 34
e 4 35
e 4 40
e 4 44
e 4 47
e 4 51
e 4 58
e 4 62
e 4 65
e 4 66
e 4 69
e 4 73
e 4 74
e 4 75
e 4 77
e 4 79
e 4 81
e 4 91
e 4 97
e 5 7
e 5 8
e 5 10
e 5 11
e 5 13
e 5 16
e 5 23
e 5 26
e 5 27
e 5 28
e 5 31
e 5 32
e 5 46
e 5 48
e 5 58
e 5 61
e 5 81
e 5 84
e 5 89
e 5 96
e 5 98
e 6 7
e 6 9
e 6 13
e 6 14
e 6 15
e 6 16
e 6 19
e 6 20
e 6 21
e 6 24
e 6 25
e 6 31
e 6 34
e 6 36
e 6 38
e 6 60
e 6 68
e 6 80
e 6 91
e 6 96
e 7 8
e 7 9
e 7 10
e 7 12
e 7 14
e 7 16
e 7 17
e 7 22
e 7 29
e 7 38
e 7 41
e 7 61
e 7 74
e 7 90
e 7 92
e 7 98
e 8 11
e 8 14
e 8 15
e 8 16
e 8 18
e 8 19
e 8 22
e 8 29
e 8 36
e 8 37
e 8 45
e 8 48
e 8 49
e 8 57
e 8 74
e 8 75
e 8 80
e 8 84
e 8 94
e 9 11
e 9 12
e 9 13
e 9 14
e 9 22
e 9 23
e 9 24
e 9 26
e 9 41
e 9 46
e 9 47
e 9 53
e 9 57
e 9 59
e 9 62
e 9 67
e 10 11
e 10 17
e 10 29
e 10 30
e 10 32
e 10 35
e 10 43
e 10 45
e 10 49
e 10 55
e 10 63
e 10 71
e 10 76
e 10 79
e 10 88
e 10 97
e 11 12
e 11 15
e 11 20
e 11 23
e 11 32
e 11 33
e 11 36
e 11 39
e 11 44
e 11 53
e 11 69
e 11 74
e 11 92
e 12 14
e 12 25
e 12 26
e 12 31
e 12 36
e 12 38
e 12 40
e 12 42
e 12 64
e 12 75
e 12 84
e 12 98
e 13 20
e 13 24
e 13 26
e 13 27
e 13 34
e 13 53
e 13 58
e 13 82
e 13 83
e 14 16
e 14 23
e 14 25
e 14 50
e 14 54
e 14 60
e 14 67
e 14 96
e 15 16
e 15 18
e 15 25
e 15 56
e 15 60
e 15 70
e 15 73
e 15 81
e 15 85
e 15 93
e 15 100
e 16 18
e 16 19
e 16 31
e 16 43
e 16 44
e 16 79
e 16 84
e 17 23
e 17 35
e 17 39
e 17 48
e 17 54
e 17 62
e 17 64
e 17 75
e 17 83
e 17 96
e 18 20
e 18 34
e 18 44
e 18 50
e 18 62
e 18 65
e 18 67
e 18 73
e 18 85
e 19 21
e 19 33
e 19 34
e 19 47
e 19 51
e 19 61
e 19 75
e 19 86
e 20 36
e 20 42
e 20 59
e 20 60
e 20 76
e 20 88
e 20 93
e 20 94
e 21 34
e 21 43
e 21 53
e 21 55
e 21 56
e 21 59
e 21 60
e 21 71
e 21 95
e 22 24
e 22 47
e 22 49
e 22 63
e 22 87
e 22 88
e 22 93
e 23 37
e 23 42
e 23 46
e 23 51
e 23 52
e 23 56
e 24 27
e 24 28
e 24 30
e 24 41
e 24 51
e 24 58
e 24 84
e 25 28
e 25 30
e 25 43
e 25 59
e 25 79
e 25 81
e 25 90
e 26 29
e 26 33
e 26 40
e 26 87
e 26 99
e 27 45
e 27 52
e 27 70
e 27 82
e 27 97
e 28 55
e 28 56
e 28 73
e 28 77
e 28 82
e 29 43
e 29 61
e 29 71
e 29 78
e 29 87
e 30 38
e 30 49
e 30 63
e 30 66
e 30 86
e 30 89
e 31 35
e 31 41
e 31 54
e 31 98
e 32 50
e 32 55
e 32 74
e 32 77
e 33 51
e 33 76
e 33 80
e 33 92
e 34 42
e 34 45
e 34 71
e 35 42
e 35 57
e 35 69
e 35 86
e 35 100
e 36 46
e 36 56
e 36 78
e 36 83
e 37 39
e 37 42
e 37 44
e 37 76
e 37 82
e 37 87
e 38 85
e 38 90
e 38 93
e 38 100
e 39 64
e 39 68
e 39 86
e 39 95
e 40 78
e 40 86
e 40 99
e 41 42
e 41 49
e 41 82
e 42 52
e 43 44
e 43 54
e 43 64
e 44 80
e 44 94
e 45 69
e 45 83
e 45 85
e 46 71
e 46 72
e 46 91
e 47 62
e 47 94
e 48 77
e 48 96
e 49 52
e 50 90
e 50 95
e 51 78
e 51 97
e 52 87
e 52 92
e 53 70
e 53 100
e 54 85
e 54 93
e 55 66
e 55 72
e 56 72
e 56 89
e 57 68
e 57 91
e 58 89
e 59 65
e 60 72
e 61 66
e 62 95
e 63 88
e 64 67
e 65 68
e 66 95
e 67 89
e 68 90
e 69 98
e 70 99
e 71 97
e 72 99
e 73 99
n 3 1
n 8 1
n 10 5
n 12 3
n 21 1
n 25 3
n 39 4
n 47 1
n 50 8
n 53 1
n 66 3
n 68 4
n 72 6
n 82 2
n 86 4
n 87 10
n 89 9
n 91 7
n 97 5
n 98 3
